NAME: berlin52-16-2
TYPE: TSP
COMMENT: min_cost = 4856.16
DIMENSION: 16
EDGE_WEIGHT_TYPE: EUC_2D
NODE_COORD_SECTION
1 945 685
2 525 1000
3 1170 65
4 835 625
5 510 875
6 700 500
7 1740 245
8 95 260
9 1530 5
10 1340 725
11 725 370
12 480 415
13 1220 580
14 475 960
15 25 230
16 700 580
EOF
